NAME: CMT5_4
TYPE: CVRP
COMMENT: 1291.29 - Cluster Nr.4
DIMENSION: 12
CAPACITY: 200
EDGE_WEIGHT_TYPE: EUC_2D
NODE_COORD_TYPE: TWOD_COORDS
NODE_COORD_SECTION: 
1 12 42
10 14 37
11 10 43
2 7 38
5 35 35
3 20 40
6 7 43
7 17 33
8 17 34
9 12 38
4 21 36
12 6 38
DEPOT_SECTION: 
5
-1
DEMAND_SECTION: 
4 19
11 9
9 5
12 16
3 12
7 41
6 27
2 28
1 21
10 11
5 0
8 3
EOF
